SAT
-1 -100 -99 -98 -6 -97 -96 95 61 -54 78 73 2 79 72 -80 -60 -43 85 28 19 77 36 56 -70 -14 87 -16 -62 12 33 -57 -26 51 -8 -17 74 88 30 38 -34 -53 4 -52 23 75 94 93 35 48 11 15 -40 10 -82 89 -45 -50 -21 -81 37 63 -59 -71 -27 18 -67 13 -9 -41 -44 29 -49 84 -42 -91 -92 -31 -5 68 3 69 58 -24 46 -76 -39 47 -22 -32 -83 66 -90 64 -86 65 -20 -7 25 55 0
